c A SAT instance generated from a 3-CNF formula that had 50 clauses and 10 variables
p cnf 10 50
-6 -1 -3 0
-2 -8 10 0
-9 1 6 0
-9 10 7 0
-8 -1 -2 0
2 -8 3 0
-3 -6 7 0
3 -1 -8 0
-7 6 8 0
5 -9 -1 0
-8 -5 -10 0
10 -8 9 0
-5 8 7 0
-10 -7 5 0
-5 -2 7 0
4 -8 6 0
9 -6 7 0
-10 -8 -7 0
4 6 -5 0
1 -6 -4 0
4 -7 -8 0
-2 -9 -8 0
-3 6 -4 0
-10 -9 8 0
7 -6 -2 0
-5 10 1 0
-9 1 6 0
6 9 10 0
10 5 -9 0
-2 -9 -1 0
10 4 3 0
1 -8 6 0
-6 -9 -7 0
1 6 9 0
-8 -6 -7 0
-10 -4 9 0
-7 -6 -4 0
4 9 5 0
10 -7 -1 0
-6 3 -10 0
-8 -2 6 0
-2 5 9 0
5 9 1 0
9 -2 5 0
-7 -3 -2 0
-9 -10 7 0
-4 1 -6 0
7 -5 10 0
-6 5 3 0
5 -6 1 0
